\ LP format - for model browsing. Use MPS format to capture full model detail.
Maximize
  24 Item_0 + 52 Item_1 + 64 Item_2 + 33 Item_3 + 45 Item_4 + 36 Item_5
   + 37 Item_6 + 75 Item_7 + 43 Item_8 + 63 Item_9 + 34 Item_10
   + 63 Item_11 + 74 Item_12 + 18 Item_13 + 42 Item_14
Subject To
 Time_Constaint_Equation: 5 Item_0 + 5 Item_1 + 6 Item_2 + 8 Item_3
   + 2 Item_4 + 3 Item_5 + 6 Item_6 + Item_7 + 6 Item_8 + 5 Item_9
   + 9 Item_10 + 6 Item_11 + 8 Item_12 + 7 Item_13 + 9 Item_14 <= 65
 Weight_Constaint_Equation: 2 Item_0 + 3 Item_1 + 5 Item_2 + 2 Item_3
   + 7 Item_4 + 9 Item_5 + 4 Item_6 + 7 Item_7 + 3 Item_8 + 9 Item_9
   + 7 Item_10 + 2 Item_11 + 3 Item_12 + 4 Item_13 + 6 Item_14 <= 50
Bounds
Binaries
 Item_0 Item_1 Item_2 Item_3 Item_4 Item_5 Item_6 Item_7 Item_8 Item_9
 Item_10 Item_11 Item_12 Item_13 Item_14
End
